NAME : ClusterId_256 
COMMENT : (Gillet and Johnson) 
TYPE : CVRP 
DIMENSION : 15 
EDGE_WEIGHT_TYPE : EUC_2D 
CAPACITY : 500 
NODE_COORD_SECTION 
256 -75 0 
222 -96 -36 
130 -94 -30 
131 -94 -20 
62 -84 -29 
91 -83 -30 
212 -80 -31 
50 -82 -14 
13 -77 -16 
54 -97 9 
125 -82 -3 
229 -92 12 
138 -70 6 
31 -62 -2 
19 -65 0 
DEMAND_SECTION 
256 800
222 77
130 87
131 17
62 44
91 33
212 18
50 79
13 50
54 19
125 11
229 2
138 85
31 24
19 47
DEPOT_SECTION 
256
 -1
EOF